tsp_instances/TSP50/instance33.tsp
NODE_COORD_SECTION
0 161 74
1 176 195
2 181 117
3 79 6
4 78 37
5 173 192
6 18 2
7 156 154
8 95 54
9 71 55
10 83 185
11 157 61
12 157 157
13 56 82
14 38 60
15 186 96
16 154 103
17 77 124
18 103 133
19 148 181
20 66 51
21 59 197
22 171 187
23 96 134
24 62 26
25 58 58
26 125 63
27 168 141
28 85 170
29 99 126
30 126 103
31 50 138
32 178 2
33 59 127
34 200 149
35 128 54
36 106 165
37 174 200
38 189 127
39 31 13
40 115 111
41 112 143
42 188 110
43 19 95
44 98 54
45 28 92
46 109 154
47 37 198
48 9 178
49 49 60
