tsp_instances/TSP50/instance33.opt.tour
TOUR_SECTION
1
12
33
36
27
45
9
5
4
7
40
25
21
10
26
50
15
44
46
14
18
34
32
49
48
22
11
29
37
47
42
19
24
30
41
31
17
28
8
13
20
38
2
6
23
35
39
3
43
16
-1